p cnf 1502 2258
8 80 97 101 0
8 80 97 -101 0
-30 32 33 102 0
33 -39 -102 103 0
-39 -54 -103 104 0
-54 -68 -76 -104 0
28 -41 45 105 0
45 54 -105 106 0
54 80 -86 -106 0
-3 7 -27 107 0
-27 40 -107 108 0
40 69 -89 -108 0
36 -47 89 109 0
36 -47 89 -109 0
-40 -63 73 78 0
-24 41 42 110 0
42 -64 -110 111 0
-64 68 91 -111 0
6 -8 25 112 0
25 -34 -112 113 0
-34 36 -113 114 0
36 40 -114 115 0
40 -69 -115 116 0
-69 -87 95 -116 0
2 -18 50 -60 0
24 25 37 117 0
37 -51 -117 118 0
-51 -68 -118 119 0
-68 82 -88 -119 0
-9 60 120 121 0
-9 60 120 -121 0
-9 60 -120 121 0
-9 60 -120 -121 0
13 19 -71 122 0
-71 -79 -83 -122 0
-9 19 -26 123 0
-26 57 -123 124 0
57 58 -124 125 0
58 -68 -125 126 0
-68 -74 82 -126 0
61 -69 127 128 0
61 -69 127 -128 0
61 -69 -127 128 0
61 -69 -127 -128 0
12 -54 -67 129 0
-67 81 -94 -129 0
14 15 -85 97 0
-10 -17 -48 130 0
-48 -67 -130 131 0
-67 -83 94 -131 0
-32 -37 -43 132 0
-43 67 -100 -132 0
-3 32 59 133 0
59 -87 -90 -133 0
-46 -64 134 135 0
-46 -64 134 -135 0
-46 -64 -134 135 0
-46 -64 -134 -135 0
-16 -39 75 136 0
-16 -39 75 -136 0
-38 -41 -82 137 0
-82 92 -93 -137 0
12 29 -42 138 0
-42 -65 -138 139 0
-65 -67 -70 -139 0
17 52 -75 -100 0
8 -23 -31 140 0
8 -23 -31 -140 0
-58 -66 88 97 0
-7 35 -54 141 0
-54 -78 97 -141 0
3 16 52 142 0
52 82 89 -142 0
-8 -14 -21 143 0
-21 70 -143 144 0
70 -71 -144 145 0
-71 -79 -145 146 0
-79 -90 -97 -146 0
-36 48 -72 147 0
-72 -86 92 -147 0
-9 -15 38 148 0
38 -48 -148 149 0
-48 -57 -149 150 0
-57 67 -150 151 0
67 -78 -151 152 0
-78 83 -152 153 0
83 84 -91 -153 0
5 -21 48 154 0
48 -56 -154 155 0
-56 90 -155 156 0
90 -98 100 -156 0
1 18 44 157 0
44 46 -157 158 0
46 -78 90 -158 0
-22 -48 59 -65 0
-7 -14 -43 54 0
-2 41 58 159 0
58 64 -159 160 0
64 72 -160 161 0
72 73 100 -161 0
4 16 41 162 0
41 -55 -162 163 0
-55 75 -163 164 0
75 -77 -164 165 0
-77 83 97 -165 0
14 -16 55 166 0
55 61 -166 167 0
61 83 94 -167 0
21 -72 168 169 0
21 -72 168 -169 0
21 -72 -168 169 0
21 -72 -168 -169 0
7 12 42 -56 0
1 -3 -20 170 0
-20 -28 -170 171 0
-28 -33 -171 172 0
-33 -50 -172 173 0
-50 57 -173 174 0
57 -58 94 -174 0
-10 19 -50 175 0
-50 71 -90 -175 0
-4 -26 76 -95 0
17 -38 -62 176 0
-62 65 -176 177 0
65 -66 -177 178 0
-66 -85 -91 -178 0
-9 -34 52 93 0
-33 -62 67 -84 0
-36 46 90 179 0
90 -96 -100 -179 0
13 -33 48 180 0
48 53 -180 181 0
53 -69 -181 182 0
-69 -72 -182 183 0
-72 77 -183 184 0
77 88 90 -184 0
9 -13 40 185 0
40 -56 -75 -185 0
26 50 53 186 0
53 -62 -186 187 0
-62 -70 -75 -187 0
-22 -26 59 -93 0
-9 15 38 188 0
38 42 -188 189 0
42 -43 -189 190 0
-43 58 -190 191 0
58 -60 -191 192 0
-60 68 -75 -192 0
33 47 193 194 0
33 47 193 -194 0
33 47 -193 194 0
33 47 -193 -194 0
2 -6 25 195 0
25 37 -65 -195 0
5 -23 28 196 0
28 -33 89 -196 0
-6 16 -61 197 0
-61 86 -93 -197 0
-11 94 198 199 0
-11 94 198 -199 0
-11 94 -198 199 0
-11 94 -198 -199 0
-58 65 66 -71 0
-17 -32 -41 46 0
-5 -35 -39 200 0
-39 70 83 -200 0
-24 -26 -41 201 0
-41 44 88 -201 0
-19 -26 -88 92 0
12 13 202 203 0
12 13 202 -203 0
12 13 -202 203 0
12 13 -202 -203 0
35 40 41 204 0
35 40 41 -204 0
-2 49 50 205 0
50 -64 -205 206 0
-64 81 -206 207 0
81 -88 -96 -207 0
-22 30 55 208 0
55 -60 -208 209 0
-60 74 93 -209 0
-32 -85 210 211 0
-32 -85 210 -211 0
-32 -85 -210 211 0
-32 -85 -210 -211 0
-3 6 -38 212 0
-38 -43 -212 213 0
-43 93 -94 -213 0
9 -10 35 214 0
35 48 -214 215 0
48 -59 -86 -215 0
-6 -16 34 216 0
34 58 -216 217 0
58 90 -217 218 0
90 92 -218 219 0
92 -94 -96 -219 0
-5 -31 -40 -80 0
-21 24 -40 220 0
-40 -43 -220 221 0
-43 -45 -221 222 0
-45 -67 -90 -222 0
-36 -38 -59 223 0
-36 -38 -59 -223 0
-36 51 -57 -99 0
8 -14 -19 224 0
-19 -59 62 -224 0
-10 -37 -46 225 0
-46 -61 -225 226 0
-61 -74 -226 227 0
-74 76 -77 -227 0
95 97 -100 228 0
95 97 -100 -228 0
-4 29 30 229 0
-4 29 30 -229 0
-56 -63 -99 230 0
-56 -63 -99 -230 0
-9 31 49 231 0
49 -71 -231 232 0
-71 -91 99 -232 0
38 -42 69 233 0
69 78 -81 -233 0
54 61 -68 234 0
54 61 -68 -234 0
-22 -66 -83 235 0
-22 -66 -83 -235 0
3 -20 79 236 0
3 -20 79 -236 0
43 46 -52 -66 0
23 31 -47 237 0
-47 62 -87 -237 0
40 61 71 238 0
71 -72 -90 -238 0
16 17 52 239 0
52 84 -239 240 0
84 87 -89 -240 0
-15 24 -46 241 0
-46 -65 -92 -241 0
2 14 -20 242 0
-20 -32 -242 243 0
-32 -47 -243 244 0
-47 -55 -244 245 0
-55 -71 97 -245 0
-32 71 76 -89 0
-9 19 -24 246 0
-24 40 73 -246 0
-23 -33 42 247 0
42 43 94 -247 0
-20 34 -40 248 0
-40 44 -248 249 0
44 -70 92 -249 0
28 -92 -94 250 0
28 -92 -94 -250 0
16 -41 44 -78 0
-42 -61 251 252 0
-42 -61 251 -252 0
-42 -61 -251 252 0
-42 -61 -251 -252 0
-11 31 -39 253 0
-11 31 -39 -253 0
-10 12 18 254 0
18 44 -254 255 0
44 -58 -255 256 0
-58 -70 93 -256 0
-1 -22 -65 -86 0
-41 -46 -76 257 0
-76 92 -257 258 0
92 -96 99 -258 0
-8 14 -28 259 0
-28 -37 -259 260 0
-37 -93 95 -260 0
54 -98 261 262 0
54 -98 261 -262 0
54 -98 -261 262 0
54 -98 -261 -262 0
-21 -25 -39 263 0
-39 -43 71 -263 0
-6 -22 -83 -97 0
-20 -30 32 264 0
32 37 -264 265 0
37 -46 -265 266 0
-46 -52 -266 267 0
-52 60 -267 268 0
60 65 -268 269 0
65 75 -269 270 0
75 76 -270 271 0
76 90 97 -271 0
-27 71 -77 272 0
-77 89 -90 -272 0
7 -38 57 273 0
57 65 -273 274 0
65 -68 -98 -274 0
39 -53 -71 275 0
-71 -76 -88 -275 0
12 -15 -22 -35 0
5 23 66 276 0
66 -76 -276 277 0
-76 88 95 -277 0
5 -17 21 278 0
21 24 -278 279 0
24 -62 -75 -279 0
1 10 -22 280 0
-22 -27 -280 281 0
-27 30 -281 282 0
30 32 -282 283 0
32 -40 -283 284 0
-40 45 -284 285 0
45 -86 -285 286 0
-86 93 -98 -286 0
3 -12 39 287 0
39 52 -287 288 0
52 57 -288 289 0
57 90 -99 -289 0
14 44 -62 290 0
-62 -70 -290 291 0
-70 72 -291 292 0
72 83 -292 293 0
83 96 -99 -293 0
25 34 -74 294 0
-74 -80 -84 -294 0
-28 -59 73 -76 0
10 27 -49 -91 0
-7 -49 56 295 0
-7 -49 56 -295 0
13 -19 49 296 0
49 72 -296 297 0
72 75 -91 -297 0
8 -26 -68 298 0
-68 73 -298 299 0
73 -77 81 -299 0
-13 -49 -54 300 0
-54 -66 -99 -300 0
6 32 37 301 0
37 -45 -61 -301 0
16 -30 -33 302 0
-33 -47 56 -302 0
28 -36 71 -100 0
-28 -37 45 303 0
45 63 -303 304 0
63 64 -95 -304 0
-22 -32 -36 305 0
-36 44 -305 306 0
44 -49 -306 307 0
-49 67 -307 308 0
67 71 83 -308 0
-35 53 79 309 0
-35 53 79 -309 0
14 -40 310 311 0
14 -40 310 -311 0
14 -40 -310 311 0
14 -40 -310 -311 0
-6 16 -23 312 0
-23 -35 -312 313 0
-35 -43 -313 314 0
-43 69 90 -314 0
-2 9 -12 315 0
-12 -34 -315 316 0
-34 -58 -316 317 0
-58 -67 84 -317 0
-21 44 63 318 0
63 -73 88 -318 0
9 25 72 319 0
72 -89 99 -319 0
22 -53 320 321 0
22 -53 320 -321 0
22 -53 -320 321 0
22 -53 -320 -321 0
-4 -6 33 322 0
33 -35 -322 323 0
-35 -42 -323 324 0
-42 -48 -324 325 0
-48 56 -325 326 0
56 -73 94 -326 0
3 5 -16 327 0
-16 -45 -327 328 0
-45 -61 -328 329 0
-61 78 -80 -329 0
2 13 35 330 0
35 67 100 -330 0
-9 -12 34 331 0
34 63 -331 332 0
63 73 -332 333 0
73 -76 -333 334 0
-76 86 93 -334 0
-52 55 66 335 0
66 88 93 -335 0
-7 22 -41 336 0
-41 -43 -336 337 0
-43 -61 -337 338 0
-61 -70 -338 339 0
-70 -82 -339 340 0
-82 89 92 -340 0
-17 39 67 341 0
67 -68 -341 342 0
-68 81 -86 -342 0
-4 -13 20 343 0
20 31 -343 344 0
31 67 75 -344 0
1 -2 -28 345 0
-28 54 -345 346 0
54 66 94 -346 0
-27 37 -41 -88 0
-3 6 -8 347 0
-8 -18 -347 348 0
-18 -35 -348 349 0
-35 -38 -349 350 0
-38 61 83 -350 0
26 -31 -54 351 0
-54 -56 -351 352 0
-56 -81 -352 353 0
-81 94 95 -353 0
-10 19 -23 354 0
-23 72 -354 355 0
72 79 -99 -355 0
-30 -38 66 356 0
66 79 -87 -356 0
14 51 73 357 0
73 75 -357 358 0
75 80 89 -358 0
-3 -44 359 360 0
-3 -44 359 -360 0
-3 -44 -359 360 0
-3 -44 -359 -360 0
2 -7 45 361 0
45 48 -361 362 0
48 53 -56 -362 0
-10 -34 -62 363 0
-62 68 70 -363 0
-2 -17 -23 364 0
-23 39 -364 365 0
39 40 -365 366 0
40 51 57 -366 0
-6 -23 40 367 0
40 -75 -367 368 0
-75 86 -92 -368 0
-5 -26 88 369 0
-5 -26 88 -369 0
-11 -27 -41 370 0
-41 47 -370 371 0
47 48 -371 372 0
48 -80 99 -372 0
-11 -57 -81 373 0
-11 -57 -81 -373 0
14 -28 -33 374 0
-33 75 -100 -374 0
21 -22 -52 375 0
-52 -70 -100 -375 0
-8 -23 -51 -55 0
36 43 59 376 0
59 75 -376 377 0
75 76 -78 -377 0
73 88 378 379 0
73 88 378 -379 0
73 88 -378 379 0
73 88 -378 -379 0
-6 -13 -21 380 0
-21 23 -380 381 0
23 -26 -381 382 0
-26 -48 -382 383 0
-48 61 -383 384 0
61 64 -97 -384 0
-20 -23 -26 385 0
-26 -30 -385 386 0
-30 38 -386 387 0
38 -88 -92 -387 0
14 42 388 389 0
14 42 388 -389 0
14 42 -388 389 0
14 42 -388 -389 0
-1 -13 -27 390 0
-27 -31 -390 391 0
-31 40 -391 392 0
40 51 -392 393 0
51 -52 -393 394 0
-52 73 -97 -394 0
-24 -30 34 395 0
34 -38 -395 396 0
-38 -56 -396 397 0
-56 -60 -397 398 0
-60 75 -398 399 0
75 84 -93 -399 0
49 -64 -94 400 0
49 -64 -94 -400 0
-14 -20 -37 401 0
-37 -58 -401 402 0
-58 -62 -402 403 0
-62 91 92 -403 0
-21 -56 77 94 0
24 25 46 404 0
24 25 46 -404 0
-2 -34 -39 -56 0
-19 -21 27 405 0
27 -30 -405 406 0
-30 -63 -406 407 0
-63 83 -407 408 0
83 89 -408 409 0
89 98 -99 -409 0
6 12 22 410 0
22 -58 -410 411 0
-58 77 86 -411 0
-14 -23 -31 412 0
-31 -41 -412 413 0
-41 -52 -413 414 0
-52 72 -414 415 0
72 73 81 -415 0
5 -37 67 416 0
67 85 88 -416 0
-4 -46 -57 -92 0
63 -67 77 417 0
77 -78 -417 418 0
-78 -81 -418 419 0
-81 83 -419 420 0
83 -84 -420 421 0
-84 90 -421 422 0
90 -92 98 -422 0
31 -37 48 423 0
48 53 94 -423 0
-12 27 29 424 0
29 -69 -424 425 0
-69 -72 -85 -425 0
-53 73 -79 95 0
-23 25 -50 426 0
-23 25 -50 -426 0
13 -17 34 427 0
34 48 49 -427 0
-14 -45 -49 428 0
-49 53 94 -428 0
-41 51 -57 -62 0
-23 38 41 429 0
41 43 -429 430 0
43 -62 -430 431 0
-62 -74 -431 432 0
-74 76 -77 -432 0
39 40 433 434 0
39 40 433 -434 0
39 40 -433 434 0
39 40 -433 -434 0
-1 -52 -55 435 0
-1 -52 -55 -435 0
4 15 -18 436 0
-18 20 -436 437 0
20 -37 -437 438 0
-37 43 -438 439 0
43 67 -439 440 0
67 -68 78 -440 0
-4 10 -18 441 0
-18 23 -441 442 0
23 -33 -442 443 0
-33 -37 -443 444 0
-37 -44 -444 445 0
-44 50 -445 446 0
50 53 -446 447 0
53 54 -447 448 0
54 56 -448 449 0
56 -62 -449 450 0
-62 -79 91 -450 0
7 -21 31 451 0
31 59 -451 452 0
59 78 -452 453 0
78 79 86 -453 0
-85 -93 454 455 0
-85 -93 454 -455 0
-85 -93 -454 455 0
-85 -93 -454 -455 0
21 -35 -42 90 0
25 -30 -43 456 0
-43 56 -456 457 0
56 62 -457 458 0
62 63 -458 459 0
63 -65 -459 460 0
-65 -67 98 -460 0
-2 6 19 461 0
19 64 -461 462 0
64 92 94 -462 0
4 25 26 463 0
26 55 -463 464 0
55 70 -464 465 0
70 -81 94 -465 0
-5 -46 -50 466 0
-50 73 -466 467 0
73 74 -467 468 0
74 -86 90 -468 0
-6 -9 12 469 0
12 44 -47 -469 0
6 -72 93 470 0
6 -72 93 -470 0
4 38 -50 471 0
-50 53 -471 472 0
53 56 -472 473 0
56 -63 72 -473 0
20 21 -34 474 0
-34 67 80 -474 0
32 -34 56 60 0
-4 -53 -68 475 0
-4 -53 -68 -475 0
37 -53 -57 476 0
-57 -85 94 -476 0
-8 -17 -41 477 0
-8 -17 -41 -477 0
73 -90 478 479 0
73 -90 478 -479 0
73 -90 -478 479 0
73 -90 -478 -479 0
23 27 -45 480 0
-45 54 -480 481 0
54 -74 -96 -481 0
5 7 29 482 0
29 -30 -482 483 0
-30 -34 -53 -483 0
-78 85 89 484 0
-78 85 89 -484 0
-13 -31 51 485 0
51 74 -79 -485 0
46 54 -61 486 0
-61 67 -486 487 0
67 80 88 -487 0
-13 -18 26 488 0
26 -36 -488 489 0
-36 -41 -489 490 0
-41 -87 94 -490 0
-10 37 49 64 0
-10 -28 -33 491 0
-33 37 -491 492 0
37 41 -492 493 0
41 42 -493 494 0
42 44 -494 495 0
44 46 -495 496 0
46 -57 -77 -496 0
6 7 21 497 0
21 22 -497 498 0
22 44 -498 499 0
44 -51 -499 500 0
-51 -71 -84 -500 0
-15 -51 62 501 0
62 67 -501 502 0
67 -73 -86 -502 0
8 11 -16 503 0
-16 25 -503 504 0
25 -53 -504 505 0
-53 -79 -99 -505 0
2 -3 -9 506 0
-9 21 -506 507 0
21 -33 -507 508 0
-33 36 -508 509 0
36 43 -509 510 0
43 56 88 -510 0
-14 -18 -31 511 0
-31 80 -90 -511 0
-8 -12 -28 512 0
-28 50 -512 513 0
50 51 95 -513 0
72 84 87 95 0
-5 41 -68 514 0
-68 -81 95 -514 0
27 -51 91 515 0
27 -51 91 -515 0
11 12 -24 516 0
-24 -41 -516 517 0
-41 49 -98 -517 0
5 -37 518 519 0
5 -37 518 -519 0
5 -37 -518 519 0
5 -37 -518 -519 0
1 14 -21 520 0
-21 37 -520 521 0
37 52 -521 522 0
52 53 -522 523 0
53 68 86 -523 0
19 -33 -75 524 0
19 -33 -75 -524 0
-5 -14 20 525 0
20 -21 -525 526 0
-21 -43 -57 -526 0
17 42 50 527 0
50 -51 -527 528 0
-51 72 -528 529 0
72 73 -529 530 0
73 80 88 -530 0
18 -64 -77 531 0
18 -64 -77 -531 0
12 -15 -44 532 0
-44 54 83 -532 0
14 59 -60 533 0
-60 72 80 -533 0
59 62 534 535 0
59 62 534 -535 0
59 62 -534 535 0
59 62 -534 -535 0
1 -5 -10 536 0
-10 33 -536 537 0
33 -64 -537 538 0
-64 -68 -538 539 0
-68 71 -539 540 0
71 -86 -99 -540 0
4 35 -83 541 0
4 35 -83 -541 0
36 38 -55 542 0
-55 -64 -542 543 0
-64 67 -77 -543 0
-11 28 -44 544 0
-44 54 -544 545 0
54 -63 -545 546 0
-63 85 -95 -546 0
2 64 95 99 0
-23 -39 45 547 0
45 47 -547 548 0
47 -72 -548 549 0
-72 76 -549 550 0
76 -79 -550 551 0
-79 85 100 -551 0
-20 -25 -29 552 0
-29 -60 -552 553 0
-60 63 -553 554 0
63 -66 79 -554 0
3 4 34 555 0
34 -39 -555 556 0
-39 63 -556 557 0
63 71 -557 558 0
71 81 -558 559 0
81 -82 -92 -559 0
-16 44 -98 560 0
-16 44 -98 -560 0
-51 -67 73 -82 0
-58 -72 81 561 0
-58 -72 81 -561 0
-4 27 28 562 0
28 -30 -562 563 0
-30 -32 -563 564 0
-32 -40 -564 565 0
-40 43 -565 566 0
43 -49 -566 567 0
-49 -72 -567 568 0
-72 89 -568 569 0
89 -95 100 -569 0
11 24 51 570 0
51 58 93 -570 0
32 -46 -69 571 0
-69 -81 -88 -571 0
-9 49 -87 572 0
-87 -91 98 -572 0
-4 52 -54 573 0
-54 63 -573 574 0
63 -64 -574 575 0
-64 89 -96 -575 0
-11 -39 -43 576 0
-43 -48 -576 577 0
-48 -50 -577 578 0
-50 69 83 -578 0
11 30 45 579 0
45 60 -579 580 0
60 86 -580 581 0
86 88 99 -581 0
13 15 33 582 0
33 44 -91 -582 0
-22 35 91 583 0
-22 35 91 -583 0
-3 -10 -13 584 0
-13 -24 -584 585 0
-24 27 -585 586 0
27 29 -36 -586 0
-14 -72 587 588 0
-14 -72 587 -588 0
-14 -72 -587 588 0
-14 -72 -587 -588 0
-8 12 29 589 0
29 32 -589 590 0
32 -34 -77 -590 0
26 -54 -62 591 0
-62 -77 -591 592 0
-77 87 -592 593 0
87 88 90 -593 0
17 23 34 594 0
34 39 -594 595 0
39 73 -595 596 0
73 -84 92 -596 0
-30 34 -40 -66 0
8 18 46 597 0
46 53 -597 598 0
53 -77 -598 599 0
-77 -83 -599 600 0
-83 89 95 -600 0
11 24 -41 601 0
-41 61 -601 602 0
61 69 -602 603 0
69 87 89 -603 0
1 29 -58 87 0
25 -48 -51 604 0
-51 62 -98 -604 0
4 -17 -63 605 0
-63 73 -605 606 0
73 -75 -606 607 0
-75 86 -607 608 0
86 -87 -100 -608 0
-14 39 48 609 0
48 -62 -609 610 0
-62 65 -610 611 0
65 -69 -75 -611 0
-3 -9 -52 95 0
47 -55 -65 -82 0
-7 -25 -32 -85 0
-6 -27 -65 -78 0
48 -51 57 -66 0
2 5 7 612 0
7 12 -612 613 0
12 23 -613 614 0
23 -36 -614 615 0
-36 -74 -615 616 0
-74 83 -99 -616 0
-7 -79 -92 617 0
-92 95 97 -617 0
15 18 49 -94 0
17 48 73 74 0
45 -60 94 618 0
45 -60 94 -618 0
1 -6 -19 619 0
-19 -49 -61 -619 0
1 -17 -22 37 0
5 -9 -15 620 0
-15 30 -620 621 0
30 35 -621 622 0
35 47 -622 623 0
47 50 -623 624 0
50 54 -89 -624 0
27 -38 -43 625 0
-43 -49 -66 -625 0
24 -66 -74 626 0
24 -66 -74 -626 0
36 62 -65 74 0
47 -48 627 628 0
47 -48 627 -628 0
47 -48 -627 628 0
47 -48 -627 -628 0
3 -12 28 629 0
28 44 -629 630 0
44 45 -630 631 0
45 52 -631 632 0
52 54 69 -632 0
-20 -31 -47 633 0
-47 50 -633 634 0
50 71 94 -634 0
-1 -5 -27 635 0
-27 46 -93 -635 0
-48 -60 93 95 0
-2 -50 65 636 0
65 69 -636 637 0
69 -89 -637 638 0
-89 -96 98 -638 0
-46 -87 639 640 0
-46 -87 639 -640 0
-46 -87 -639 640 0
-46 -87 -639 -640 0
-22 -51 54 58 0
16 -17 -56 641 0
-56 -61 -641 642 0
-61 -85 -642 643 0
-85 94 95 -643 0
-27 -53 -57 644 0
-57 -90 -644 645 0
-90 -94 -99 -645 0
-4 -49 -54 646 0
-54 -60 -646 647 0
-60 82 -647 648 0
82 90 -91 -648 0
5 -8 -43 649 0
-43 -51 98 -649 0
-17 -24 -29 650 0
-29 48 86 -650 0
-34 44 -73 651 0
-34 44 -73 -651 0
9 -11 -56 652 0
-56 63 -652 653 0
63 93 -100 -653 0
-8 -11 16 654 0
16 57 -654 655 0
57 59 86 -655 0
-7 53 82 656 0
82 83 -656 657 0
83 -94 -97 -657 0
1 -2 -40 658 0
-40 89 98 -658 0
13 -76 81 659 0
81 82 -659 660 0
82 88 -660 661 0
88 94 -98 -661 0
12 -35 -50 662 0
-50 -68 -95 -662 0
50 -66 78 663 0
78 89 -94 -663 0
-14 -19 -39 664 0
-39 52 -664 665 0
52 59 -665 666 0
59 64 -666 667 0
64 65 -82 -667 0
-2 7 10 668 0
10 36 -668 669 0
36 54 -669 670 0
54 -64 -670 671 0
-64 71 -671 672 0
71 -74 -89 -672 0
-7 17 26 673 0
26 -29 -673 674 0
-29 -49 -674 675 0
-49 61 -675 676 0
61 -71 -96 -676 0
-6 40 66 677 0
66 -73 -677 678 0
-73 -78 94 -678 0
19 -91 679 680 0
19 -91 679 -680 0
19 -91 -679 680 0
19 -91 -679 -680 0
59 87 -92 -99 0
-42 -51 -100 681 0
-42 -51 -100 -681 0
3 -4 9 682 0
9 45 -682 683 0
45 -46 -683 684 0
-46 -70 -684 685 0
-70 -79 -81 -685 0
-53 69 87 686 0
-53 69 87 -686 0
-8 29 -43 687 0
-43 60 -687 688 0
60 62 -688 689 0
62 86 89 -689 0
-50 74 76 690 0
76 -78 95 -690 0
4 12 -22 691 0
-22 -24 -691 692 0
-24 38 -692 693 0
38 -83 -85 -693 0
-53 57 -90 98 0
5 24 59 694 0
59 -87 -694 695 0
-87 95 100 -695 0
-15 -35 53 696 0
53 59 -696 697 0
59 75 94 -697 0
25 -36 -47 -51 0
-3 6 -30 698 0
-30 -39 -698 699 0
-39 -43 -699 700 0
-43 -58 -700 701 0
-58 84 -701 702 0
84 85 -96 -702 0
9 -17 35 703 0
35 -36 -703 704 0
-36 -49 -99 -704 0
-52 69 -94 705 0
-94 -97 100 -705 0
14 -47 -50 -74 0
-3 24 65 706 0
65 -77 -85 -706 0
-5 8 -10 707 0
-10 -28 -707 708 0
-28 40 -708 709 0
40 41 -709 710 0
41 45 -710 711 0
45 -70 -711 712 0
-70 -74 -712 713 0
-74 89 -713 714 0
89 -93 -714 715 0
-93 -95 -99 -715 0
48 -55 82 87 0
7 -10 -35 716 0
-35 47 -716 717 0
47 -65 -96 -717 0
-50 -55 -64 718 0
-64 66 -718 719 0
66 -87 -719 720 0
-87 99 100 -720 0
-6 -22 28 721 0
28 34 -721 722 0
34 -49 -85 -722 0
24 34 -47 51 0
-32 -37 64 -87 0
22 50 56 -83 0
-30 45 80 723 0
-30 45 80 -723 0
11 18 -42 724 0
-42 83 -98 -724 0
35 73 -85 -96 0
-5 -27 37 725 0
37 -58 -725 726 0
-58 69 -726 727 0
69 89 94 -727 0
8 -24 -49 -90 0
5 -7 -48 728 0
-48 52 -728 729 0
52 -55 90 -729 0
-4 11 27 730 0
27 32 -730 731 0
32 -62 87 -731 0
-35 -39 70 732 0
70 -71 -80 -732 0
-9 16 38 733 0
-9 16 38 -733 0
-7 -39 -92 734 0
-7 -39 -92 -734 0
25 31 -58 83 0
-29 77 78 735 0
-29 77 78 -735 0
18 -23 27 736 0
27 -29 -736 737 0
-29 48 -737 738 0
48 60 -738 739 0
60 -69 75 -739 0
-38 -51 65 97 0
11 22 83 89 0
42 44 65 -95 0
-38 45 99 740 0
-38 45 99 -740 0
-36 -67 741 742 0
-36 -67 741 -742 0
-36 -67 -741 742 0
-36 -67 -741 -742 0
-18 33 38 743 0
38 85 94 -743 0
-43 -61 68 -95 0
-5 -33 -46 744 0
-5 -33 -46 -744 0
-10 18 19 745 0
19 30 -745 746 0
30 34 -746 747 0
34 -41 -55 -747 0
5 -6 -9 748 0
-9 -18 -748 749 0
-18 -46 -749 750 0
-46 58 -750 751 0
58 69 -97 -751 0
20 -35 44 752 0
44 -76 -752 753 0
-76 85 86 -753 0
8 -24 72 754 0
72 91 100 -754 0
46 54 79 755 0
46 54 79 -755 0
-8 -26 42 756 0
42 -68 -756 757 0
-68 -81 -98 -757 0
26 76 758 759 0
26 76 758 -759 0
26 76 -758 759 0
26 76 -758 -759 0
-38 -75 -93 760 0
-38 -75 -93 -760 0
-4 -32 37 -45 0
17 31 42 86 0
14 16 43 761 0
43 -58 -96 -761 0
51 -53 -71 -87 0
31 32 -66 -85 0
-17 -30 -69 762 0
-69 73 -78 -762 0
1 14 -17 -75 0
-28 82 91 763 0
-28 82 91 -763 0
10 53 -56 764 0
-56 -77 -764 765 0
-77 -85 -765 766 0
-85 -97 -100 -766 0
6 39 -40 767 0
-40 -43 -767 768 0
-43 52 -768 769 0
52 -65 97 -769 0
-28 -39 -50 -92 0
-26 50 -56 770 0
-56 -59 -770 771 0
-59 76 -771 772 0
76 -78 -772 773 0
-78 96 98 -773 0
41 49 85 774 0
41 49 85 -774 0
-28 46 53 775 0
53 58 -775 776 0
58 86 87 -776 0
-5 -12 -20 777 0
-20 39 -777 778 0
39 40 -778 779 0
40 47 89 -779 0
40 48 -69 780 0
-69 -75 -780 781 0
-75 -84 98 -781 0
4 21 32 782 0
32 -47 -81 -782 0
-1 22 -23 783 0
-23 84 -96 -783 0
1 44 -47 784 0
-47 53 -784 785 0
53 -60 -785 786 0
-60 -66 -95 -786 0
20 -32 -36 787 0
-36 -42 -787 788 0
-42 53 83 -788 0
-25 42 64 789 0
64 72 90 -789 0
-26 -66 71 790 0
71 -79 -99 -790 0
12 40 43 791 0
12 40 43 -791 0
5 7 -18 792 0
-18 44 -78 -792 0
-47 85 88 793 0
-47 85 88 -793 0
-4 -22 29 794 0
29 78 -794 795 0
78 95 100 -795 0
28 -64 70 796 0
70 73 -81 -796 0
44 -56 -68 88 0
-23 25 -29 797 0
-29 -41 -797 798 0
-41 -77 83 -798 0
4 24 -49 81 0
-1 -34 -39 799 0
-39 67 -799 800 0
67 79 -800 801 0
79 84 -801 802 0
84 85 99 -802 0
35 -56 62 803 0
62 94 -97 -803 0
-20 41 46 804 0
46 68 -804 805 0
68 79 -805 806 0
79 89 100 -806 0
-11 28 29 807 0
29 -38 -807 808 0
-38 63 -68 -808 0
-51 -55 73 -79 0
-34 -52 -85 809 0
-85 -90 100 -809 0
31 56 72 810 0
72 79 -810 811 0
79 89 -90 -811 0
-2 -32 -37 812 0
-37 71 -812 813 0
71 86 -813 814 0
86 -97 -100 -814 0
-1 36 37 815 0
37 45 -815 816 0
45 -51 -816 817 0
-51 -78 83 -817 0
-14 60 -90 -98 0
20 31 64 818 0
64 70 -818 819 0
70 -72 -819 820 0
-72 -77 -820 821 0
-77 89 -821 822 0
89 92 100 -822 0
-2 22 -33 823 0
-33 41 -823 824 0
41 -71 -824 825 0
-71 -82 -98 -825 0
6 14 44 826 0
44 64 -80 -826 0
-20 -39 -80 827 0
-80 85 98 -827 0
5 6 55 828 0
55 -65 -828 829 0
-65 -74 94 -829 0
-39 61 69 830 0
69 92 93 -830 0
19 -65 -71 831 0
-71 77 -80 -831 0
57 -61 67 72 0
-23 26 -38 832 0
-38 -40 -832 833 0
-40 54 -833 834 0
54 90 -834 835 0
90 93 -835 836 0
93 94 -836 837 0
94 -96 98 -837 0
-6 44 -65 -72 0
8 30 78 838 0
78 -79 -838 839 0
-79 -88 95 -839 0
2 9 -18 840 0
-18 49 -64 -840 0
-17 -20 -62 841 0
-17 -20 -62 -841 0
22 46 -49 71 0
18 -46 72 842 0
72 96 99 -842 0
3 -4 -81 843 0
-81 -88 -98 -843 0
-1 -24 29 844 0
29 42 -844 845 0
42 79 -90 -845 0
-33 -52 61 846 0
61 -62 -846 847 0
-62 -85 -92 -847 0
20 -39 64 848 0
64 75 -848 849 0
75 82 -849 850 0
82 -88 -850 851 0
-88 -94 -99 -851 0
20 38 -54 852 0
-54 58 -76 -852 0
27 -32 -45 853 0
-45 67 -853 854 0
67 -82 92 -854 0
-12 -25 -77 855 0
-12 -25 -77 -855 0
-6 -38 44 -49 0
-19 28 -57 856 0
-19 28 -57 -856 0
-5 -41 77 -86 0
-23 40 96 857 0
-23 40 96 -857 0
1 10 -30 858 0
-30 36 -858 859 0
36 -77 -100 -859 0
40 41 64 860 0
64 84 -89 -860 0
-42 -47 74 861 0
-42 -47 74 -861 0
20 23 30 862 0
30 70 93 -862 0
24 -79 863 864 0
24 -79 863 -864 0
24 -79 -863 864 0
24 -79 -863 -864 0
6 7 15 865 0
15 55 -865 866 0
55 -76 96 -866 0
-2 15 -47 867 0
-47 56 -71 -867 0
-11 16 -48 94 0
-5 11 -14 868 0
-14 25 -868 869 0
25 26 -869 870 0
26 -53 -870 871 0
-53 -56 -99 -871 0
15 -19 25 872 0
25 64 -872 873 0
64 -67 -873 874 0
-67 -74 -874 875 0
-74 -93 -99 -875 0
24 67 -71 876 0
24 67 -71 -876 0
32 40 -62 78 0
7 -45 85 -97 0
5 27 -49 877 0
-49 71 -877 878 0
71 -81 94 -878 0
12 -21 -44 -60 0
-20 56 879 880 0
-20 56 879 -880 0
-20 56 -879 880 0
-20 56 -879 -880 0
17 -53 881 882 0
17 -53 881 -882 0
17 -53 -881 882 0
17 -53 -881 -882 0
12 -37 41 883 0
41 51 -83 -883 0
-19 26 31 884 0
31 41 -884 885 0
41 74 -885 886 0
74 76 -886 887 0
76 85 -887 888 0
85 91 -97 -888 0
2 7 -10 889 0
-10 -26 -889 890 0
-26 36 -890 891 0
36 45 -891 892 0
45 -49 -892 893 0
-49 -77 -893 894 0
-77 81 97 -894 0
2 -3 12 895 0
12 29 -895 896 0
29 -60 -896 897 0
-60 69 -897 898 0
69 -72 -898 899 0
-72 76 95 -899 0
-65 96 -97 -100 0
-1 11 -37 900 0
-37 -54 -900 901 0
-54 -67 -901 902 0
-67 69 72 -902 0
-5 -11 -23 903 0
-23 -75 -903 904 0
-75 -92 -99 -904 0
-9 -27 38 905 0
-9 -27 38 -905 0
-36 49 -53 906 0
-53 -66 -100 -906 0
-7 16 18 907 0
18 -23 -907 908 0
-23 -63 -908 909 0
-63 81 -909 910 0
81 91 -92 -910 0
-19 -50 -69 72 0
14 22 -25 911 0
14 22 -25 -911 0
43 51 52 -65 0
-7 -14 -24 912 0
-24 32 -912 913 0
32 42 -913 914 0
42 70 79 -914 0
-23 40 915 916 0
-23 40 915 -916 0
-23 40 -915 916 0
-23 40 -915 -916 0
37 40 -57 917 0
-57 63 -917 918 0
63 -64 -918 919 0
-64 -73 86 -919 0
12 -13 25 920 0
25 42 -920 921 0
42 -43 -921 922 0
-43 -54 85 -922 0
1 22 -23 923 0
-23 27 -42 -923 0
42 45 52 924 0
52 61 -924 925 0
61 69 -91 -925 0
5 -58 -62 926 0
-62 65 -926 927 0
65 73 -927 928 0
73 95 -97 -928 0
16 -25 96 929 0
16 -25 96 -929 0
-20 -22 -37 930 0
-37 43 -79 -930 0
-13 -33 -50 931 0
-50 63 -931 932 0
63 88 -92 -932 0
-1 41 -46 933 0
-46 69 -81 -933 0
31 45 934 935 0
31 45 934 -935 0
31 45 -934 935 0
31 45 -934 -935 0
-4 21 38 936 0
38 43 -936 937 0
43 56 -937 938 0
56 -71 -938 939 0
-71 79 81 -939 0
-9 -26 -78 940 0
-78 82 -940 941 0
82 84 -941 942 0
84 -90 -94 -942 0
-11 32 -70 943 0
-11 32 -70 -943 0
-9 -21 43 944 0
43 -90 -944 945 0
-90 -93 -99 -945 0
3 8 -40 946 0
-40 -65 -99 -946 0
-53 60 81 85 0
21 -41 -70 947 0
21 -41 -70 -947 0
4 -6 58 -66 0
-70 79 83 948 0
83 84 89 -948 0
15 18 19 949 0
19 31 -949 950 0
31 71 -950 951 0
71 -80 -83 -951 0
-20 -65 952 953 0
-20 -65 952 -953 0
-20 -65 -952 953 0
-20 -65 -952 -953 0
-17 -54 -61 954 0
-61 -70 -954 955 0
-70 74 -955 956 0
74 83 98 -956 0
-50 -53 -56 957 0
-56 -60 -78 -957 0
-22 43 -65 958 0
-65 -76 -958 959 0
-76 -82 -959 960 0
-82 92 -98 -960 0
-19 -43 -50 961 0
-50 -62 -961 962 0
-62 -69 -962 963 0
-69 -81 -84 -963 0
14 34 39 964 0
39 -40 -964 965 0
-40 64 -965 966 0
64 87 -966 967 0
87 -89 -967 968 0
-89 93 -968 969 0
93 -97 -100 -969 0
-14 22 -38 970 0
-38 -71 -970 971 0
-71 -93 95 -971 0
-9 37 -47 972 0
-47 -60 -972 973 0
-60 66 -973 974 0
66 81 -974 975 0
81 86 -92 -975 0
-1 -23 -36 -70 0
-33 45 -51 976 0
-51 78 -976 977 0
78 -79 -977 978 0
-79 88 94 -978 0
18 31 -34 979 0
-34 -69 -979 980 0
-69 77 -980 981 0
77 -78 -981 982 0
-78 -84 91 -982 0
3 -35 -42 983 0
-42 50 -983 984 0
50 -67 -984 985 0
-67 -74 -83 -985 0
-20 35 -50 986 0
-50 65 -986 987 0
65 79 -987 988 0
79 82 -988 989 0
82 -83 -87 -989 0
18 -30 37 990 0
37 70 -990 991 0
70 73 -94 -991 0
-9 -18 96 -98 0
5 7 14 992 0
14 -29 -992 993 0
-29 33 -993 994 0
33 42 -994 995 0
42 43 -995 996 0
43 50 -996 997 0
50 56 -65 -997 0
14 21 998 999 0
14 21 998 -999 0
14 21 -998 999 0
14 21 -998 -999 0
-13 -20 -44 1000 0
-44 -59 -1000 1001 0
-59 77 79 -1001 0
8 22 44 1002 0
44 -45 -1002 1003 0
-45 59 -1003 1004 0
59 -90 -1004 1005 0
-90 93 -95 -1005 0
-11 -34 40 1006 0
40 67 -1006 1007 0
67 69 -74 -1007 0
5 16 -39 1008 0
-39 58 -1008 1009 0
58 -79 89 -1009 0
23 25 36 1010 0
36 -61 -1010 1011 0
-61 79 -1011 1012 0
79 80 -1012 1013 0
80 -89 -1013 1014 0
-89 -94 -96 -1014 0
7 29 -56 1015 0
-56 -73 -1015 1016 0
-73 -78 -1016 1017 0
-78 -85 89 -1017 0
-40 72 -73 1018 0
-73 77 82 -1018 0
15 34 -53 1019 0
-53 60 100 -1019 0
1 18 20 1020 0
20 51 -1020 1021 0
51 56 -79 -1021 0
48 50 -92 96 0
3 -8 -35 1022 0
-35 -82 -1022 1023 0
-82 -88 99 -1023 0
-44 -59 74 1024 0
-44 -59 74 -1024 0
22 23 31 1025 0
31 -43 -1025 1026 0
-43 52 -1026 1027 0
52 -66 -97 -1027 0
2 9 -10 1028 0
-10 -17 -79 -1028 0
2 6 -21 1029 0
-21 24 -1029 1030 0
24 36 -84 -1030 0
44 -78 1031 1032 0
44 -78 1031 -1032 0
44 -78 -1031 1032 0
44 -78 -1031 -1032 0
14 -46 57 -60 0
3 -23 -89 1033 0
3 -23 -89 -1033 0
16 -19 21 1034 0
21 23 -1034 1035 0
23 -30 -1035 1036 0
-30 -63 -1036 1037 0
-63 -68 99 -1037 0
-9 -14 24 1038 0
24 -31 -1038 1039 0
-31 -38 -1039 1040 0
-38 -42 -1040 1041 0
-42 -53 -1041 1042 0
-53 56 -1042 1043 0
56 -59 -69 -1043 0
56 59 -69 98 0
5 8 66 1044 0
66 -67 -97 -1044 0
-54 77 1045 1046 0
-54 77 1045 -1046 0
-54 77 -1045 1046 0
-54 77 -1045 -1046 0
-40 55 66 -88 0
56 -57 69 1047 0
69 87 -1047 1048 0
87 98 -100 -1048 0
-14 -37 55 1049 0
55 73 -1049 1050 0
73 -76 -85 -1050 0
24 26 66 1051 0
24 26 66 -1051 0
-30 38 -42 1052 0
-42 -69 -1052 1053 0
-69 -74 -1053 1054 0
-74 88 -95 -1054 0
-28 -45 61 1055 0
61 65 -1055 1056 0
65 66 -1056 1057 0
66 88 94 -1057 0
-19 21 62 1058 0
-19 21 62 -1058 0
-42 69 -76 1059 0
-42 69 -76 -1059 0
-26 -61 92 1060 0
-26 -61 92 -1060 0
7 67 -68 78 0
9 -15 20 1061 0
20 28 41 -1061 0
77 -85 -93 1062 0
77 -85 -93 -1062 0
13 42 47 1063 0
47 -63 -1063 1064 0
-63 68 -1064 1065 0
68 78 -1065 1066 0
78 79 -1066 1067 0
79 91 -1067 1068 0
91 92 99 -1068 0
9 10 14 1069 0
14 -38 -1069 1070 0
-38 68 84 -1070 0
-25 55 80 1071 0
-25 55 80 -1071 0
-23 52 -57 1072 0
-57 62 -1072 1073 0
62 66 -1073 1074 0
66 -67 -1074 1075 0
-67 -84 -1075 1076 0
-84 -94 98 -1076 0
-8 16 17 1077 0
17 -32 52 -1077 0
10 28 31 1078 0
31 48 -1078 1079 0
48 -59 -1079 1080 0
-59 -64 -1080 1081 0
-64 -72 -83 -1081 0
-13 -19 49 -79 0
46 -56 -81 -83 0
-18 26 64 89 0
4 5 15 1082 0
15 -54 -1082 1083 0
-54 -87 97 -1083 0
27 -51 -77 1084 0
-77 -86 89 -1084 0
-1 13 25 1085 0
25 56 -63 -1085 0
35 -38 84 -87 0
-3 -40 -60 1086 0
-60 71 -1086 1087 0
71 72 -1087 1088 0
72 -80 -96 -1088 0
-45 83 1089 1090 0
-45 83 1089 -1090 0
-45 83 -1089 1090 0
-45 83 -1089 -1090 0
53 65 71 1091 0
71 86 -94 -1091 0
-5 10 36 65 0
31 60 90 1092 0
31 60 90 -1092 0
-21 -26 61 1093 0
61 66 -1093 1094 0
66 67 -1094 1095 0
67 -93 99 -1095 0
-14 22 -26 1096 0
-26 44 -1096 1097 0
44 46 -1097 1098 0
46 59 -1098 1099 0
59 61 -1099 1100 0
61 66 -1100 1101 0
66 -77 -79 -1101 0
38 -80 97 1102 0
38 -80 97 -1102 0
36 49 -54 1103 0
-54 -64 -1103 1104 0
-64 79 -1104 1105 0
79 -80 90 -1105 0
-2 -44 97 1106 0
-2 -44 97 -1106 0
-23 34 -48 1107 0
-48 52 -1107 1108 0
52 -55 87 -1108 0
-1 -29 -71 1109 0
-71 -77 -1109 1110 0
-77 -80 98 -1110 0
-12 15 -67 -86 0
-2 9 21 1111 0
21 43 100 -1111 0
5 -19 28 1112 0
28 30 -1112 1113 0
30 -75 -78 -1113 0
3 12 -29 1114 0
-29 -57 76 -1114 0
48 -68 73 1115 0
48 -68 73 -1115 0
-28 -71 -82 87 0
1 -42 -56 1116 0
-56 63 -69 -1116 0
-7 11 -17 1117 0
-17 51 -1117 1118 0
51 -57 -1118 1119 0
-57 78 85 -1119 0
-25 -80 1120 1121 0
-25 -80 1120 -1121 0
-25 -80 -1120 1121 0
-25 -80 -1120 -1121 0
16 -49 -54 1122 0
-54 57 95 -1122 0
8 -17 21 1123 0
21 23 -1123 1124 0
23 46 -1124 1125 0
46 47 -1125 1126 0
47 64 -1126 1127 0
64 72 -1127 1128 0
72 -75 -1128 1129 0
-75 81 82 -1129 0
-81 -99 1130 1131 0
-81 -99 1130 -1131 0
-81 -99 -1130 1131 0
-81 -99 -1130 -1131 0
-4 -9 64 1132 0
64 67 93 -1132 0
-17 -34 -85 1133 0
-17 -34 -85 -1133 0
13 42 -73 1134 0
-73 -75 80 -1134 0
-18 -25 -69 1135 0
-69 -78 -97 -1135 0
10 -24 -30 1136 0
-30 45 -1136 1137 0
45 50 -1137 1138 0
50 65 -91 -1138 0
-31 -53 -83 1139 0
-31 -53 -83 -1139 0
7 8 -21 1140 0
-21 24 -1140 1141 0
24 30 44 -1141 0
21 -44 -54 1142 0
-54 56 -1142 1143 0
56 68 -1143 1144 0
68 82 -1144 1145 0
82 83 -1145 1146 0
83 86 -1146 1147 0
86 -92 -98 -1147 0
-36 40 47 1148 0
47 68 -69 -1148 0
-28 -65 -74 76 0
-4 25 99 1149 0
-4 25 99 -1149 0
-90 -99 1150 1151 0
-90 -99 1150 -1151 0
-90 -99 -1150 1151 0
-90 -99 -1150 -1151 0
15 -31 -40 1152 0
-40 -57 -1152 1153 0
-57 -77 91 -1153 0
-5 11 -15 1154 0
-15 -69 -80 -1154 0
13 -28 55 1155 0
55 60 89 -1155 0
2 -11 27 1156 0
27 40 -1156 1157 0
40 -42 84 -1157 0
28 72 1158 1159 0
28 72 1158 -1159 0
28 72 -1158 1159 0
28 72 -1158 -1159 0
11 -15 -43 1160 0
-43 -97 -99 -1160 0
20 -29 34 1161 0
34 36 -56 -1161 0
12 -19 -38 1162 0
-38 -45 -1162 1163 0
-45 53 -1163 1164 0
53 -61 -1164 1165 0
-61 80 100 -1165 0
-18 31 -43 1166 0
-43 62 -65 -1166 0
1 -13 -48 1167 0
-48 -54 -1167 1168 0
-54 79 -90 -1168 0
44 -48 -90 96 0
5 -30 -39 1169 0
-39 -45 -1169 1170 0
-45 -50 -1170 1171 0
-50 -56 -1171 1172 0
-56 66 -1172 1173 0
66 -75 -1173 1174 0
-75 -81 97 -1174 0
19 -27 36 1175 0
36 -55 -1175 1176 0
-55 -66 -1176 1177 0
-66 73 -1177 1178 0
73 -80 -92 -1178 0
-9 -21 27 1179 0
27 29 -78 -1179 0
48 -71 96 1180 0
48 -71 96 -1180 0
7 27 28 1181 0
28 -64 100 -1181 0
24 39 47 1182 0
47 -51 -66 -1182 0
-16 40 -69 1183 0
-69 80 -1183 1184 0
80 -87 -93 -1184 0
14 -95 1185 1186 0
14 -95 1185 -1186 0
14 -95 -1185 1186 0
14 -95 -1185 -1186 0
-22 32 41 -94 0
3 19 -20 1187 0
-20 23 -88 -1187 0
12 -56 -58 -68 0
32 42 -44 1188 0
-44 -52 -1188 1189 0
-52 63 -1189 1190 0
63 -70 -1190 1191 0
-70 91 -98 -1191 0
-17 -19 22 1192 0
22 65 -1192 1193 0
65 68 -80 -1193 0
27 28 -33 1194 0
-33 60 -1194 1195 0
60 -61 99 -1195 0
-15 21 33 1196 0
33 72 95 -1196 0
-8 -40 100 1197 0
-8 -40 100 -1197 0
10 28 78 1198 0
78 -81 -98 -1198 0
7 18 47 1199 0
7 18 47 -1199 0
-15 -20 -35 1200 0
-35 -73 -96 -1200 0
-53 84 1201 1202 0
-53 84 1201 -1202 0
-53 84 -1201 1202 0
-53 84 -1201 -1202 0
2 41 -67 -79 0
14 -18 24 1203 0
24 25 -44 -1203 0
10 -24 38 1204 0
38 -41 89 -1204 0
2 -42 -49 1205 0
-49 -55 -1205 1206 0
-55 67 -1206 1207 0
67 70 -76 -1207 0
-9 69 -97 1208 0
-9 69 -97 -1208 0
3 55 -84 90 0
-15 -18 -37 -68 0
-2 -4 12 1209 0
12 -42 95 -1209 0
-14 52 1210 1211 0
-14 52 1210 -1211 0
-14 52 -1210 1211 0
-14 52 -1210 -1211 0
-5 -50 62 -91 0
-14 23 -76 1212 0
-14 23 -76 -1212 0
68 -69 -75 1213 0
-75 -78 -1213 1214 0
-78 -81 -1214 1215 0
-81 99 100 -1215 0
-15 44 74 1216 0
-15 44 74 -1216 0
-54 -63 1217 1218 0
-54 -63 1217 -1218 0
-54 -63 -1217 1218 0
-54 -63 -1217 -1218 0
-32 -36 92 1219 0
-32 -36 92 -1219 0
6 26 37 1220 0
37 -40 -1220 1221 0
-40 47 -1221 1222 0
47 -52 -1222 1223 0
-52 -57 -1223 1224 0
-57 83 -100 -1224 0
-29 -50 -61 1225 0
-61 -65 -1225 1226 0
-65 73 74 -1226 0
4 -5 10 -85 0
27 -38 44 -45 0
-1 19 -36 1227 0
-36 64 -1227 1228 0
64 68 -81 -1228 0
-29 33 70 1229 0
-29 33 70 -1229 0
8 -11 -17 1230 0
-17 49 96 -1230 0
-37 52 -70 -90 0
-3 15 -26 1231 0
-26 -34 -1231 1232 0
-34 69 -1232 1233 0
69 77 -85 -1233 0
51 -56 66 94 0
-27 40 -69 1234 0
-27 40 -69 -1234 0
-31 60 -61 -77 0
64 -78 98 100 0
3 33 52 -91 0
-7 -12 38 1235 0
38 -64 -69 -1235 0
-1 -15 -50 1236 0
-50 -64 -1236 1237 0
-64 -68 -81 -1237 0
-16 -21 74 -80 0
-2 -25 35 92 0
-29 66 79 1238 0
-29 66 79 -1238 0
26 37 39 1239 0
39 83 -1239 1240 0
83 91 98 -1240 0
-13 -44 -56 1241 0
-56 64 -1241 1242 0
64 67 -1242 1243 0
67 -70 -97 -1243 0
-6 15 -18 1244 0
-18 -28 -1244 1245 0
-28 -32 52 -1245 0
50 -82 -95 -99 0
17 -33 53 1246 0
53 62 -1246 1247 0
62 96 97 -1247 0
31 32 -64 1248 0
-64 83 85 -1248 0
-13 -16 -31 1249 0
-31 -39 -47 -1249 0
1 -10 17 1250 0
17 -25 -1250 1251 0
-25 61 -1251 1252 0
61 -70 86 -1252 0
-56 -59 -69 1253 0
-56 -59 -69 -1253 0
-9 67 -68 76 0
-1 -5 -48 1254 0
-48 58 -1254 1255 0
58 85 -1255 1256 0
85 -87 90 -1256 0
-4 -18 -82 -97 0
20 40 -55 1257 0
20 40 -55 -1257 0
-5 -43 52 1258 0
-5 -43 52 -1258 0
-52 -95 1259 1260 0
-52 -95 1259 -1260 0
-52 -95 -1259 1260 0
-52 -95 -1259 -1260 0
-5 49 57 1261 0
-5 49 57 -1261 0
2 -3 -81 87 0
25 -69 -89 1262 0
-89 -92 98 -1262 0
14 22 -35 1263 0
-35 66 69 -1263 0
45 -46 -84 1264 0
45 -46 -84 -1264 0
39 -53 73 1265 0
73 80 -1265 1266 0
80 82 97 -1266 0
-36 -78 94 -100 0
25 29 32 1267 0
32 -36 -1267 1268 0
-36 45 -1268 1269 0
45 49 -86 -1269 0
20 -41 -65 85 0
55 99 1270 1271 0
55 99 1270 -1271 0
55 99 -1270 1271 0
55 99 -1270 -1271 0
32 -43 -61 1272 0
-61 -71 -94 -1272 0
-5 22 -28 -77 0
-8 -65 -81 -96 0
13 28 35 1273 0
35 -36 -1273 1274 0
-36 -59 -1274 1275 0
-59 66 -1275 1276 0
66 70 -1276 1277 0
70 76 -1277 1278 0
76 77 -1278 1279 0
77 93 -98 -1279 0
14 -34 -60 1280 0
-60 -78 -92 -1280 0
-31 -61 94 1281 0
-31 -61 94 -1281 0
-10 25 -49 1282 0
-49 -77 -92 -1282 0
-15 23 50 1283 0
50 -66 -1283 1284 0
-66 -81 -93 -1284 0
-32 -81 86 1285 0
-32 -81 86 -1285 0
43 83 -93 -97 0
-12 -49 -72 1286 0
-72 79 -1286 1287 0
79 89 -99 -1287 0
10 49 -54 -87 0
-5 -39 44 1288 0
44 46 -1288 1289 0
46 54 -1289 1290 0
54 -76 -99 -1290 0
-17 -27 -40 1291 0
-40 89 90 -1291 0
-5 18 68 -96 0
-4 -25 40 1292 0
40 50 -1292 1293 0
50 -52 -1293 1294 0
-52 62 83 -1294 0
-36 -52 61 1295 0
61 69 -1295 1296 0
69 70 -1296 1297 0
70 -76 -1297 1298 0
-76 -88 -100 -1298 0
30 -39 53 1299 0
53 -61 -1299 1300 0
-61 69 -1300 1301 0
69 90 -1301 1302 0
90 94 -95 -1302 0
12 17 22 1303 0
22 -56 -1303 1304 0
-56 -60 -1304 1305 0
-60 83 -1305 1306 0
83 86 -1306 1307 0
86 -92 -100 -1307 0
2 25 29 1308 0
29 45 -1308 1309 0
45 58 -1309 1310 0
58 59 -1310 1311 0
59 88 -96 -1311 0
-36 -45 55 1312 0
55 -56 -1312 1313 0
-56 61 -1313 1314 0
61 80 -100 -1314 0
-17 -19 34 1315 0
34 41 -1315 1316 0
41 54 -1316 1317 0
54 66 -1317 1318 0
66 -82 -92 -1318 0
6 -10 22 1319 0
22 48 -1319 1320 0
48 -49 -96 -1320 0
-36 -48 67 1321 0
-36 -48 67 -1321 0
-8 17 -33 1322 0
-33 -44 -95 -1322 0
-19 -25 44 1323 0
44 -64 -94 -1323 0
25 34 52 1324 0
52 58 -1324 1325 0
58 -61 -1325 1326 0
-61 69 -94 -1326 0
46 -81 1327 1328 0
46 -81 1327 -1328 0
46 -81 -1327 1328 0
46 -81 -1327 -1328 0
18 -29 52 1329 0
52 -62 -1329 1330 0
-62 -76 -1330 1331 0
-76 84 -85 -1331 0
3 -6 8 1332 0
8 -43 -1332 1333 0
-43 -51 -1333 1334 0
-51 -69 -1334 1335 0
-69 83 -1335 1336 0
83 -88 -1336 1337 0
-88 -91 -96 -1337 0
-4 -16 19 1338 0
19 36 -1338 1339 0
36 -48 -1339 1340 0
-48 77 100 -1340 0
-10 -29 -59 61 0
-9 -41 65 -81 0
15 42 43 1341 0
43 63 -1341 1342 0
63 64 78 -1342 0
2 26 -30 1343 0
-30 -43 -1343 1344 0
-43 66 -1344 1345 0
66 76 -99 -1345 0
6 11 24 -95 0
-20 36 39 1346 0
39 45 -1346 1347 0
45 51 -1347 1348 0
51 57 -1348 1349 0
57 70 -1349 1350 0
70 78 -97 -1350 0
-39 -56 -65 -68 0
5 -33 -55 1351 0
-55 -68 -1351 1352 0
-68 -91 100 -1352 0
-38 61 -83 88 0
2 8 -28 1353 0
-28 -51 -1353 1354 0
-51 67 -86 -1354 0
26 -30 -78 -84 0
7 32 -71 1355 0
-71 -84 -91 -1355 0
9 24 29 1356 0
29 -35 -1356 1357 0
-35 47 -1357 1358 0
47 56 -63 -1358 0
-10 -45 93 1359 0
-10 -45 93 -1359 0
-35 38 -73 89 0
-4 -9 46 1360 0
46 63 -1360 1361 0
63 -74 -1361 1362 0
-74 -77 -85 -1362 0
-29 32 -41 1363 0
-41 -43 83 -1363 0
9 -15 35 1364 0
35 38 -1364 1365 0
38 -53 -1365 1366 0
-53 69 -1366 1367 0
69 71 78 -1367 0
-25 -57 -89 1368 0
-25 -57 -89 -1368 0
2 -3 6 1369 0
6 15 -1369 1370 0
15 -20 -1370 1371 0
-20 36 -1371 1372 0
36 -53 -1372 1373 0
-53 -82 -1373 1374 0
-82 -88 -95 -1374 0
42 -43 72 1375 0
72 75 -99 -1375 0
-67 -93 1376 1377 0
-67 -93 1376 -1377 0
-67 -93 -1376 1377 0
-67 -93 -1376 -1377 0
24 54 -75 -83 0
88 -91 -93 1378 0
88 -91 -93 -1378 0
40 74 -75 1379 0
40 74 -75 -1379 0
14 -17 -34 1380 0
-34 38 -1380 1381 0
38 66 -75 -1381 0
-10 -44 -80 1382 0
-10 -44 -80 -1382 0
2 -6 -23 1383 0
-23 37 -1383 1384 0
37 -48 -1384 1385 0
-48 55 -1385 1386 0
55 77 -1386 1387 0
77 86 -87 -1387 0
4 -69 -75 1388 0
-75 98 -99 -1388 0
5 -58 -64 1389 0
5 -58 -64 -1389 0
26 95 1390 1391 0
26 95 1390 -1391 0
26 95 -1390 1391 0
26 95 -1390 -1391 0
10 -72 -81 1392 0
10 -72 -81 -1392 0
-6 19 22 1393 0
22 -42 -1393 1394 0
-42 45 -1394 1395 0
45 47 -1395 1396 0
47 53 92 -1396 0
-6 10 -40 1397 0
-40 65 -1397 1398 0
65 74 -1398 1399 0
74 -93 99 -1399 0
-22 -51 55 1400 0
55 63 -1400 1401 0
63 67 -1401 1402 0
67 68 -1402 1403 0
68 -80 92 -1403 0
-4 20 27 1404 0
27 -28 -1404 1405 0
-28 57 -1405 1406 0
57 -58 -1406 1407 0
-58 74 -83 -1407 0
-16 -21 63 90 0
12 -47 64 1408 0
64 -65 -69 -1408 0
-56 -67 -87 1409 0
-56 -67 -87 -1409 0
-1 -73 1410 1411 0
-1 -73 1410 -1411 0
-1 -73 -1410 1411 0
-1 -73 -1410 -1411 0
-49 -52 63 87 0
7 26 -31 1412 0
7 26 -31 -1412 0
14 -22 29 1413 0
29 57 -1413 1414 0
57 -74 -1414 1415 0
-74 -76 -1415 1416 0
-76 82 -87 -1416 0
-18 -29 33 1417 0
33 35 -1417 1418 0
35 -50 -1418 1419 0
-50 54 -1419 1420 0
54 -68 -1420 1421 0
-68 89 -99 -1421 0
-29 -31 -37 -75 0
-4 31 -53 1422 0
-53 -59 74 -1422 0
24 -61 -82 -96 0
-14 33 -53 56 0
-28 -55 1423 1424 0
-28 -55 1423 -1424 0
-28 -55 -1423 1424 0
-28 -55 -1423 -1424 0
-26 -50 -58 1425 0
-58 62 -1425 1426 0
62 67 74 -1426 0
1 9 28 1427 0
28 49 -69 -1427 0
9 10 -31 -77 0
25 26 -99 1428 0
25 26 -99 -1428 0
-7 13 -80 1429 0
-7 13 -80 -1429 0
-30 -43 45 1430 0
45 62 -1430 1431 0
62 -66 -1431 1432 0
-66 70 -1432 1433 0
70 87 -1433 1434 0
87 89 -91 -1434 0
-3 -41 -45 -62 0
6 -29 37 1435 0
37 39 -1435 1436 0
39 -45 -50 -1436 0
-17 74 -82 1437 0
-82 -86 97 -1437 0
16 56 57 1438 0
57 -79 82 -1438 0
-9 -31 -73 1439 0
-73 79 88 -1439 0
60 83 84 -86 0
-17 28 -54 1440 0
-54 -97 -99 -1440 0
49 60 62 -94 0
-9 -18 21 1441 0
21 -22 -1441 1442 0
-22 -37 97 -1442 0
3 -8 16 1443 0
16 -31 -1443 1444 0
-31 35 -1444 1445 0
35 74 -1445 1446 0
74 -76 86 -1446 0
-30 -57 80 -90 0
8 20 45 1447 0
45 50 -1447 1448 0
50 -51 67 -1448 0
31 45 -74 1449 0
31 45 -74 -1449 0
15 81 -87 -98 0
1 -6 57 1450 0
1 -6 57 -1450 0
7 -10 25 1451 0
25 59 -1451 1452 0
59 79 -1452 1453 0
79 83 -90 -1453 0
-3 -13 -40 1454 0
-40 56 -71 -1454 0
-23 -36 -49 1455 0
-49 -72 80 -1455 0
11 17 28 1456 0
28 -40 -1456 1457 0
-40 44 -1457 1458 0
44 -82 -1458 1459 0
-82 88 -91 -1459 0
2 -71 77 1460 0
2 -71 77 -1460 0
-10 16 -20 1461 0
-20 47 -1461 1462 0
47 -55 -1462 1463 0
-55 -68 -1463 1464 0
-68 -82 -1464 1465 0
-82 87 -95 -1465 0
6 -24 -26 1466 0
-26 -38 -1466 1467 0
-38 52 -1467 1468 0
52 62 -1468 1469 0
62 -83 -99 -1469 0
-13 -31 75 -88 0
28 34 -41 -67 0
-31 34 1470 1471 0
-31 34 1470 -1471 0
-31 34 -1470 1471 0
-31 34 -1470 -1471 0
-24 57 1472 1473 0
-24 57 1472 -1473 0
-24 57 -1472 1473 0
-24 57 -1472 -1473 0
-17 -20 -30 1474 0
-30 -59 -1474 1475 0
-59 89 -93 -1475 0
9 -71 -87 1476 0
9 -71 -87 -1476 0
3 12 41 1477 0
41 55 -1477 1478 0
55 79 -1478 1479 0
79 -95 -100 -1479 0
15 19 22 1480 0
22 -24 74 -1480 0
27 77 -91 1481 0
27 77 -91 -1481 0
47 -95 1482 1483 0
47 -95 1482 -1483 0
47 -95 -1482 1483 0
47 -95 -1482 -1483 0
6 -11 -21 1484 0
-21 29 -1484 1485 0
29 84 -90 -1485 0
4 -5 -48 98 0
3 5 87 1486 0
3 5 87 -1486 0
2 -16 -39 1487 0
-39 -67 -77 -1487 0
-44 -64 1488 1489 0
-44 -64 1488 -1489 0
-44 -64 -1488 1489 0
-44 -64 -1488 -1489 0
-34 -53 55 1490 0
55 69 71 -1490 0
-21 29 30 1491 0
30 -39 -1491 1492 0
-39 46 -1492 1493 0
46 60 -1493 1494 0
60 -89 95 -1494 0
6 -9 38 1495 0
38 -66 -92 -1495 0
30 -31 -58 -69 0
-4 19 -57 1496 0
-4 19 -57 -1496 0
2 17 37 1497 0
37 -71 -75 -1497 0
-68 88 1498 1499 0
-68 88 1498 -1499 0
-68 88 -1498 1499 0
-68 88 -1498 -1499 0
-36 42 50 1500 0
50 -62 -1500 1501 0
-62 -80 -1501 1502 0
-80 83 98 -1502 0
